
Gurobi 9.5.2 (win64) logging started Mon Feb 12 17:58:26 2024

Set parameter LogFile to value "./ccga_results/2024-02-12 17-58-24-268/MSP_TimeStampConvert_gurobi_log.txt"
Set parameter TimeLimit to value 35998

Gurobi 9.5.2 (win64) logging started Mon Feb 12 17:58:26 2024

Set parameter LogFile to value "./ccga_results/2024-02-12 17-58-24-268/MSP_TimeStampConvert_gurobi_log.txt"
Set parameter TimeLimit to value 35998
Gurobi Optimizer version 9.5.2 build v9.5.2rc0 (win64)
Thread count: 10 physical cores, 20 logical processors, using up to 20 threads
Optimize a model with 600 rows, 457 columns and 1482 nonzeros
Model fingerprint: 0xe63f0f4b
Variable types: 25 continuous, 432 integer (432 binary)
Coefficient statistics:
  Matrix range     [1e+00, 1e+00]
  Objective range  [1e+00, 1e+00]
  Bounds range     [1e+03, 1e+03]
  RHS range        [1e+00, 1e+00]
Found heuristic solution: objective 24000.000000

Explored 0 nodes (0 simplex iterations) in 0.00 seconds (0.00 work units)
Thread count was 1 (of 20 available processors)

Solution count 1: 24000 

Optimal solution found (tolerance 1.00e-02)
Best objective 2.400000000000e+04, best bound 2.400000000000e+04, gap 0.0000%

User-callback calls 21, time in user-callback 0.00 sec
Set parameter TimeLimit to value 35995
Gurobi Optimizer version 9.5.2 build v9.5.2rc0 (win64)
Thread count: 10 physical cores, 20 logical processors, using up to 20 threads
Optimize a model with 2161 rows, 961 columns and 6497 nonzeros
Model fingerprint: 0x3ae3af36
Variable types: 481 continuous, 480 integer (480 binary)
Coefficient statistics:
  Matrix range     [9e-02, 8e+02]
  Objective range  [1e+00, 1e+00]
  Bounds range     [1e+03, 1e+03]
  RHS range        [1e+00, 1e+08]

MIP start from previous solve did not produce a new incumbent solution

Presolve removed 1500 rows and 673 columns
Presolve time: 0.00s
Presolved: 661 rows, 288 columns, 1560 nonzeros
Variable types: 288 continuous, 0 integer (0 binary)

Root relaxation: objective 2.570224e+03, 368 iterations, 0.00 seconds (0.00 work units)

    Nodes    |    Current Node    |     Objective Bounds      |     Work
 Expl Unexpl |  Obj  Depth IntInf | Incumbent    BestBd   Gap | It/Node Time

*    0     0               0    2570.2238303 2570.22383  0.00%     -    0s

Explored 1 nodes (368 simplex iterations) in 0.01 seconds (0.01 work units)
Thread count was 20 (of 20 available processors)

Solution count 1: 2570.22 

Optimal solution found (tolerance 1.00e-02)
Best objective 2.570223830306e+03, best bound 2.570223830306e+03, gap 0.0000%

User-callback calls 698, time in user-callback 0.00 sec
Set parameter TimeLimit to value 35993
Gurobi Optimizer version 9.5.2 build v9.5.2rc0 (win64)
Thread count: 10 physical cores, 20 logical processors, using up to 20 threads
Optimize a model with 3722 rows, 1465 columns and 11512 nonzeros
Model fingerprint: 0xa52e8284
Variable types: 937 continuous, 528 integer (528 binary)
Coefficient statistics:
  Matrix range     [9e-02, 8e+02]
  Objective range  [1e+00, 1e+00]
  Bounds range     [1e+03, 1e+03]
  RHS range        [1e+00, 1e+08]

